25° run output:
{
    "Function": "euclidB300.tsp",
    "Problem dimension": [
        166,
        24,
        120,
        239,
        131,
        91,
        296,
        89,
        248,
        83,
        295,
        269,
        177,
        137,
        42,
        65,
        100,
        115,
        171,
        260,
        290,
        10,
        249,
        26,
        227,
        218,
        153,
        35,
        18,
        264,
        119,
        159,
        2,
        44,
        243,
        294,
        134,
        143,
        203,
        170,
        185,
        183,
        201,
        23,
        293,
        101,
        7,
        17,
        242,
        50,
        150,
        244,
        113,
        28,
        87,
        163,
        63,
        152,
        189,
        117,
        263,
        219,
        99,
        25,
        103,
        252,
        286,
        8,
        107,
        142,
        200,
        13,
        86,
        209,
        59,
        178,
        38,
        145,
        224,
        187,
        268,
        222,
        282,
        144,
        141,
        148,
        1,
        225,
        125,
        284,
        194,
        70,
        132,
        30,
        258,
        182,
        158,
        149,
        85,
        33,
        135,
        223,
        81,
        57,
        231,
        261,
        240,
        43,
        138,
        299,
        173,
        34,
        14,
        93,
        39,
        292,
        71,
        220,
        40,
        266,
        68,
        106,
        254,
        204,
        247,
        285,
        212,
        155,
        172,
        19,
        169,
        75,
        140,
        270,
        6,
        180,
        121,
        188,
        246,
        78,
        161,
        31,
        297,
        9,
        5,
        196,
        199,
        16,
        20,
        146,
        124,
        36,
        184,
        165,
        186,
        98,
        213,
        267,
        130,
        198,
        238,
        174,
        207,
        41,
        77,
        127,
        274,
        139,
        272,
        162,
        123,
        234,
        102,
        167,
        114,
        104,
        56,
        52,
        122,
        69,
        179,
        79,
        226,
        53,
        84,
        126,
        147,
        205,
        253,
        27,
        54,
        237,
        232,
        94,
        206,
        76,
        61,
        32,
        128,
        96,
        277,
        181,
        278,
        95,
        15,
        64,
        259,
        191,
        229,
        3,
        228,
        289,
        279,
        136,
        276,
        241,
        21,
        281,
        92,
        48,
        154,
        105,
        62,
        251,
        0,
        116,
        168,
        49,
        236,
        51,
        164,
        66,
        195,
        208,
        193,
        216,
        265,
        11,
        97,
        233,
        156,
        230,
        112,
        262,
        118,
        175,
        257,
        250,
        214,
        110,
        60,
        197,
        157,
        271,
        55,
        275,
        37,
        273,
        80,
        29,
        4,
        129,
        133,
        210,
        211,
        109,
        235,
        88,
        176,
        221,
        73,
        22,
        108,
        46,
        190,
        288,
        82,
        90,
        58,
        12,
        45,
        74,
        255,
        47,
        287,
        151,
        283,
        67,
        298,
        111,
        72,
        217,
        192,
        202,
        291,
        215,
        160,
        245,
        256,
        280
    ],
    "Global Optimum": 0,
    "Algorithm": "Genetic algorithm",
    "Parameters": {
        "population": 30,
        "offspring": 30,
        "mutation probability": 0.0033333333333333335,
        "crossover probability": 0.9
    },
    "Fitness": 362757,
    "Solution": [
        166,
        24,
        120,
        239,
        131,
        91,
        296,
        89,
        248,
        83,
        295,
        269,
        177,
        137,
        42,
        65,
        100,
        115,
        171,
        260,
        290,
        10,
        249,
        26,
        227,
        218,
        153,
        35,
        18,
        264,
        119,
        159,
        2,
        44,
        243,
        294,
        134,
        143,
        203,
        170,
        185,
        183,
        201,
        23,
        293,
        101,
        7,
        17,
        242,
        50,
        150,
        244,
        113,
        28,
        87,
        163,
        63,
        152,
        189,
        117,
        263,
        219,
        99,
        25,
        103,
        252,
        286,
        8,
        107,
        142,
        200,
        13,
        86,
        209,
        59,
        178,
        38,
        145,
        224,
        187,
        268,
        222,
        282,
        144,
        141,
        148,
        1,
        225,
        125,
        284,
        194,
        70,
        132,
        30,
        258,
        182,
        158,
        149,
        85,
        33,
        135,
        223,
        81,
        57,
        231,
        261,
        240,
        43,
        138,
        299,
        173,
        34,
        14,
        93,
        39,
        292,
        71,
        220,
        40,
        266,
        68,
        106,
        254,
        204,
        247,
        285,
        212,
        155,
        172,
        19,
        169,
        75,
        140,
        270,
        6,
        180,
        121,
        188,
        246,
        78,
        161,
        31,
        297,
        9,
        5,
        196,
        199,
        16,
        20,
        146,
        124,
        36,
        184,
        165,
        186,
        98,
        213,
        267,
        130,
        198,
        238,
        174,
        207,
        41,
        77,
        127,
        274,
        139,
        272,
        162,
        123,
        234,
        102,
        167,
        114,
        104,
        56,
        52,
        122,
        69,
        179,
        79,
        226,
        53,
        84,
        126,
        147,
        205,
        253,
        27,
        54,
        237,
        232,
        94,
        206,
        76,
        61,
        32,
        128,
        96,
        277,
        181,
        278,
        95,
        15,
        64,
        259,
        191,
        229,
        3,
        228,
        289,
        279,
        136,
        276,
        241,
        21,
        281,
        92,
        48,
        154,
        105,
        62,
        251,
        0,
        116,
        168,
        49,
        236,
        51,
        164,
        66,
        195,
        208,
        193,
        216,
        265,
        11,
        97,
        233,
        156,
        230,
        112,
        262,
        118,
        175,
        257,
        250,
        214,
        110,
        60,
        197,
        157,
        271,
        55,
        275,
        37,
        273,
        80,
        29,
        4,
        129,
        133,
        210,
        211,
        109,
        235,
        88,
        176,
        221,
        73,
        22,
        108,
        46,
        190,
        288,
        82,
        90,
        58,
        12,
        45,
        74,
        255,
        47,
        287,
        151,
        283,
        67,
        298,
        111,
        72,
        217,
        192,
        202,
        291,
        215,
        160,
        245,
        256,
        280
    ],
    "Nb of functions evaluations": 50010,
    "Computational time in seconds": 143.34915852546692,
    "Stopping criterion in evaluations": 50000
}